unsat
(error "line 6550 column 17: model is not available")
(error "line 6551 column 17: model is not available")
(error "line 6552 column 18: model is not available")
(error "line 6553 column 19: model is not available")
(error "line 6554 column 19: model is not available")
(error "line 6555 column 19: model is not available")
(error "line 6556 column 19: model is not available")
(error "line 6557 column 19: model is not available")
(error "line 6558 column 19: model is not available")
(error "line 6559 column 19: model is not available")
(error "line 6560 column 19: model is not available")
(error "line 6561 column 19: model is not available")
(error "line 6562 column 19: model is not available")
(error "line 6563 column 18: model is not available")
(error "line 6564 column 19: model is not available")
(error "line 6565 column 19: model is not available")
(error "line 6566 column 19: model is not available")
(error "line 6567 column 19: model is not available")
(error "line 6568 column 19: model is not available")
(error "line 6569 column 19: model is not available")
(error "line 6570 column 19: model is not available")
(error "line 6571 column 19: model is not available")
(error "line 6572 column 19: model is not available")
(error "line 6573 column 19: model is not available")
(error "line 6574 column 18: model is not available")
(error "line 6575 column 19: model is not available")
(error "line 6576 column 19: model is not available")
(error "line 6577 column 19: model is not available")
(error "line 6578 column 19: model is not available")
(error "line 6579 column 19: model is not available")
(error "line 6580 column 19: model is not available")
(error "line 6581 column 19: model is not available")
(error "line 6582 column 19: model is not available")
(error "line 6583 column 19: model is not available")
(error "line 6584 column 19: model is not available")
(error "line 6585 column 18: model is not available")
(error "line 6586 column 19: model is not available")
(error "line 6587 column 19: model is not available")
(error "line 6588 column 19: model is not available")
(error "line 6589 column 19: model is not available")
(error "line 6590 column 19: model is not available")
(error "line 6591 column 19: model is not available")
(error "line 6592 column 19: model is not available")
(error "line 6593 column 19: model is not available")
(error "line 6594 column 19: model is not available")
(error "line 6595 column 19: model is not available")
(error "line 6596 column 18: model is not available")
(error "line 6597 column 19: model is not available")
(error "line 6598 column 19: model is not available")
(error "line 6599 column 19: model is not available")
(error "line 6600 column 19: model is not available")
(error "line 6601 column 19: model is not available")
(error "line 6602 column 19: model is not available")
(error "line 6603 column 19: model is not available")
(error "line 6604 column 19: model is not available")
(error "line 6605 column 19: model is not available")
(error "line 6606 column 19: model is not available")
(error "line 6607 column 18: model is not available")
(error "line 6608 column 19: model is not available")
(error "line 6609 column 19: model is not available")
(error "line 6610 column 19: model is not available")
(error "line 6611 column 19: model is not available")
(error "line 6612 column 19: model is not available")
(error "line 6613 column 19: model is not available")
(error "line 6614 column 19: model is not available")
(error "line 6615 column 19: model is not available")
(error "line 6616 column 19: model is not available")
(error "line 6617 column 19: model is not available")
(error "line 6618 column 18: model is not available")
(error "line 6619 column 19: model is not available")
(error "line 6620 column 19: model is not available")
(error "line 6621 column 19: model is not available")
(error "line 6622 column 19: model is not available")
(error "line 6623 column 19: model is not available")
(error "line 6624 column 19: model is not available")
(error "line 6625 column 19: model is not available")
(error "line 6626 column 19: model is not available")
(error "line 6627 column 19: model is not available")
(error "line 6628 column 19: model is not available")
(error "line 6629 column 18: model is not available")
(error "line 6630 column 19: model is not available")
(error "line 6631 column 19: model is not available")
(error "line 6632 column 19: model is not available")
(error "line 6633 column 19: model is not available")
(error "line 6634 column 19: model is not available")
(error "line 6635 column 19: model is not available")
(error "line 6636 column 19: model is not available")
(error "line 6637 column 19: model is not available")
(error "line 6638 column 19: model is not available")
(error "line 6639 column 19: model is not available")
(error "line 6640 column 18: model is not available")
(error "line 6641 column 19: model is not available")
(error "line 6642 column 19: model is not available")
(error "line 6643 column 19: model is not available")
(error "line 6644 column 19: model is not available")
(error "line 6645 column 19: model is not available")
(error "line 6646 column 19: model is not available")
(error "line 6647 column 18: model is not available")
(error "line 6648 column 17: model is not available")
(error "line 6649 column 18: model is not available")
(error "line 6650 column 18: model is not available")
(error "line 6651 column 18: model is not available")
(error "line 6652 column 18: model is not available")
(error "line 6653 column 18: model is not available")
(error "line 6654 column 18: model is not available")
(error "line 6655 column 18: model is not available")
(error "line 6656 column 18: model is not available")
(error "line 6657 column 18: model is not available")
(error "line 6658 column 18: model is not available")
(error "line 6659 column 17: model is not available")
(error "line 6660 column 18: model is not available")
(error "line 6661 column 18: model is not available")
(error "line 6662 column 18: model is not available")
(error "line 6663 column 18: model is not available")
(error "line 6664 column 18: model is not available")
(error "line 6665 column 18: model is not available")
(error "line 6666 column 18: model is not available")
(error "line 6667 column 18: model is not available")
(error "line 6668 column 18: model is not available")
(error "line 6669 column 18: model is not available")
(error "line 6670 column 17: model is not available")
(error "line 6671 column 18: model is not available")
(error "line 6672 column 18: model is not available")
(error "line 6673 column 18: model is not available")
(error "line 6674 column 18: model is not available")
(error "line 6675 column 18: model is not available")
(error "line 6676 column 18: model is not available")
(error "line 6677 column 18: model is not available")
(error "line 6678 column 18: model is not available")
(error "line 6679 column 18: model is not available")
(error "line 6680 column 18: model is not available")
(error "line 6681 column 17: model is not available")
(error "line 6682 column 18: model is not available")
(error "line 6683 column 18: model is not available")
(error "line 6684 column 18: model is not available")
(error "line 6685 column 18: model is not available")
(error "line 6686 column 18: model is not available")
(error "line 6687 column 18: model is not available")
(error "line 6688 column 18: model is not available")
(error "line 6689 column 18: model is not available")
(error "line 6690 column 18: model is not available")
(error "line 6691 column 18: model is not available")
(error "line 6692 column 17: model is not available")
(error "line 6693 column 18: model is not available")
(error "line 6694 column 18: model is not available")
(error "line 6695 column 18: model is not available")
(error "line 6696 column 18: model is not available")
(error "line 6697 column 18: model is not available")
(error "line 6698 column 18: model is not available")
(error "line 6699 column 18: model is not available")
(error "line 6700 column 18: model is not available")
(error "line 6701 column 18: model is not available")
(error "line 6702 column 18: model is not available")
(error "line 6703 column 17: model is not available")
(error "line 6704 column 18: model is not available")
(error "line 6705 column 18: model is not available")
(error "line 6706 column 18: model is not available")
(error "line 6707 column 18: model is not available")
(error "line 6708 column 18: model is not available")
(error "line 6709 column 18: model is not available")
(error "line 6710 column 18: model is not available")
(error "line 6711 column 18: model is not available")
(error "line 6712 column 18: model is not available")
(error "line 6713 column 18: model is not available")
(error "line 6714 column 17: model is not available")
(error "line 6715 column 18: model is not available")
(error "line 6716 column 18: model is not available")
(error "line 6717 column 18: model is not available")
(error "line 6718 column 18: model is not available")
(error "line 6719 column 18: model is not available")
(error "line 6720 column 18: model is not available")
(error "line 6721 column 18: model is not available")
(error "line 6722 column 18: model is not available")
(error "line 6723 column 18: model is not available")
(error "line 6724 column 18: model is not available")
(error "line 6725 column 17: model is not available")
(error "line 6726 column 18: model is not available")
(error "line 6727 column 18: model is not available")
(error "line 6728 column 18: model is not available")
(error "line 6729 column 18: model is not available")
(error "line 6730 column 18: model is not available")
(error "line 6731 column 18: model is not available")
(error "line 6732 column 18: model is not available")
(error "line 6733 column 18: model is not available")
(error "line 6734 column 18: model is not available")
(error "line 6735 column 18: model is not available")
(error "line 6736 column 38: model is not available")
(error "line 6737 column 45: model is not available")
(error "line 6738 column 38: model is not available")
(error "line 6739 column 45: model is not available")
(error "line 6740 column 46: model is not available")
(error "line 6741 column 53: model is not available")
(error "line 6742 column 40: model is not available")
(error "line 6743 column 47: model is not available")
(error "line 6744 column 38: model is not available")
(error "line 6745 column 45: model is not available")
(error "line 6746 column 38: model is not available")
(error "line 6747 column 45: model is not available")
(error "line 6748 column 41: model is not available")
(error "line 6749 column 48: model is not available")
(error "line 6750 column 42: model is not available")
(error "line 6751 column 42: model is not available")
(error "line 6752 column 49: model is not available")
(error "line 6753 column 42: model is not available")
(error "line 6754 column 49: model is not available")
(error "line 6755 column 42: model is not available")
(error "line 6756 column 42: model is not available")
(error "line 6757 column 49: model is not available")
(error "line 6758 column 41: model is not available")
(error "line 6759 column 48: model is not available")
(error "line 6760 column 41: model is not available")
(error "line 6761 column 48: model is not available")
(error "line 6762 column 41: model is not available")
(error "line 6763 column 41: model is not available")
(error "line 6764 column 48: model is not available")
(error "line 6765 column 41: model is not available")
(error "line 6766 column 48: model is not available")
(error "line 6767 column 41: model is not available")
(error "line 6768 column 41: model is not available")
(error "line 6769 column 48: model is not available")
(error "line 6770 column 41: model is not available")
(error "line 6771 column 48: model is not available")
(error "line 6772 column 37: model is not available")
(error "line 6773 column 44: model is not available")
(error "line 6774 column 42: model is not available")
(error "line 6775 column 42: model is not available")
(error "line 6776 column 42: model is not available")
(error "line 6777 column 42: model is not available")
(error "line 6778 column 42: model is not available")
(error "line 6779 column 42: model is not available")
(error "line 6780 column 38: model is not available")
(error "line 6781 column 38: model is not available")
(error "line 6782 column 38: model is not available")
(error "line 6783 column 38: model is not available")
(error "line 6784 column 38: model is not available")
(error "line 6785 column 38: model is not available")
(error "line 6786 column 38: model is not available")
(error "line 6787 column 38: model is not available")
(error "line 6788 column 38: model is not available")
(error "line 6789 column 38: model is not available")
(error "line 6790 column 38: model is not available")
(error "line 6791 column 41: model is not available")
(error "line 6792 column 48: model is not available")
(error "line 6793 column 42: model is not available")
(error "line 6794 column 49: model is not available")
(error "line 6795 column 42: model is not available")
(error "line 6796 column 49: model is not available")
(error "line 6797 column 41: model is not available")
(error "line 6798 column 48: model is not available")
(error "line 6799 column 41: model is not available")
(error "line 6800 column 48: model is not available")
(error "line 6801 column 41: model is not available")
(error "line 6802 column 48: model is not available")
(error "line 6803 column 41: model is not available")
(error "line 6804 column 48: model is not available")
(error "line 6805 column 41: model is not available")
(error "line 6806 column 48: model is not available")
(error "line 6807 column 41: model is not available")
(error "line 6808 column 48: model is not available")
(error "line 6809 column 41: model is not available")
(error "line 6810 column 48: model is not available")
(error "line 6811 column 41: model is not available")
(error "line 6812 column 48: model is not available")
(error "line 6813 column 53: model is not available")
(error "line 6814 column 53: model is not available")
(error "line 6815 column 53: model is not available")
(error "line 6816 column 53: model is not available")
(error "line 6817 column 53: model is not available")
(error "line 6818 column 38: model is not available")
(error "line 6819 column 39: model is not available")
(error "line 6820 column 39: model is not available")
(error "line 6821 column 39: model is not available")
(error "line 6822 column 39: model is not available")
(error "line 6823 column 39: model is not available")
(error "line 6824 column 39: model is not available")
(error "line 6825 column 39: model is not available")
(error "line 6826 column 39: model is not available")
(error "line 6827 column 39: model is not available")
(error "line 6828 column 39: model is not available")
(error "line 6829 column 38: model is not available")
(error "line 6830 column 39: model is not available")
(error "line 6831 column 38: model is not available")
(error "line 6832 column 38: model is not available")
(error "line 6833 column 38: model is not available")
(error "line 6834 column 38: model is not available")
(error "line 6835 column 38: model is not available")
(error "line 6836 column 38: model is not available")
(error "line 6837 column 38: model is not available")
(error "line 6838 column 18: model is not available")
(error "line 6839 column 25: model is not available")
(error "line 6840 column 19: model is not available")
(error "line 6841 column 26: model is not available")
(error "line 6842 column 19: model is not available")
(error "line 6843 column 26: model is not available")
(error "line 6844 column 19: model is not available")
(error "line 6845 column 19: model is not available")
(error "line 6846 column 26: model is not available")
(error "line 6847 column 19: model is not available")
(error "line 6848 column 26: model is not available")
(error "line 6849 column 19: model is not available")
(error "line 6850 column 19: model is not available")
(error "line 6851 column 26: model is not available")
(error "line 6852 column 19: model is not available")
(error "line 6853 column 26: model is not available")
(error "line 6854 column 19: model is not available")
(error "line 6855 column 19: model is not available")
(error "line 6856 column 26: model is not available")
(error "line 6857 column 18: model is not available")
(error "line 6858 column 25: model is not available")
(error "line 6859 column 19: model is not available")
(error "line 6860 column 26: model is not available")
(error "line 6861 column 19: model is not available")
(error "line 6862 column 19: model is not available")
(error "line 6863 column 26: model is not available")
(error "line 6864 column 19: model is not available")
(error "line 6865 column 26: model is not available")
(error "line 6866 column 19: model is not available")
(error "line 6867 column 19: model is not available")
(error "line 6868 column 26: model is not available")
(error "line 6869 column 19: model is not available")
(error "line 6870 column 26: model is not available")
(error "line 6871 column 19: model is not available")
(error "line 6872 column 19: model is not available")
(error "line 6873 column 26: model is not available")
(error "line 6874 column 19: model is not available")
(error "line 6875 column 26: model is not available")
(error "line 6876 column 18: model is not available")
(error "line 6877 column 19: model is not available")
(error "line 6878 column 19: model is not available")
(error "line 6879 column 26: model is not available")
(error "line 6880 column 18: model is not available")
(error "line 6881 column 25: model is not available")
(error "line 6882 column 18: model is not available")
(error "line 6883 column 25: model is not available")
(error "line 6884 column 18: model is not available")
(error "line 6885 column 18: model is not available")
(error "line 6886 column 25: model is not available")
(error "line 6887 column 18: model is not available")
(error "line 6888 column 25: model is not available")
(error "line 6889 column 18: model is not available")
(error "line 6890 column 36: model is not available")
(error "line 6891 column 36: model is not available")
(error "line 6892 column 36: model is not available")
(error "line 6893 column 36: model is not available")
(error "line 6894 column 36: model is not available")
(error "line 6895 column 29: model is not available")
(error "line 6896 column 31: model is not available")
(error "line 6897 column 38: model is not available")
(error "line 6898 column 31: model is not available")
(error "line 6899 column 38: model is not available")
(error "line 6900 column 31: model is not available")
(error "line 6901 column 38: model is not available")
(error "line 6902 column 31: model is not available")
(error "line 6903 column 38: model is not available")
(error "line 6904 column 31: model is not available")
(error "line 6905 column 38: model is not available")
(error "line 6906 column 31: model is not available")
(error "line 6907 column 38: model is not available")
(error "line 6908 column 53: model is not available")
(error "line 6909 column 52: model is not available")
(error "line 6910 column 53: model is not available")
(error "line 6911 column 53: model is not available")
(error "line 6912 column 52: model is not available")
(error "line 6913 column 53: model is not available")
(error "line 6914 column 53: model is not available")
(error "line 6915 column 53: model is not available")
(error "line 6916 column 52: model is not available")
(error "line 6917 column 53: model is not available")
(error "line 6918 column 53: model is not available")
(error "line 6919 column 53: model is not available")
(error "line 6920 column 53: model is not available")
(error "line 6921 column 52: model is not available")
(error "line 6922 column 51: model is not available")
(error "line 6923 column 51: model is not available")
(error "line 6924 column 51: model is not available")
(error "line 6925 column 51: model is not available")
(error "line 6926 column 51: model is not available")
(error "line 6927 column 51: model is not available")
(error "line 6928 column 51: model is not available")
(error "line 6929 column 51: model is not available")
(error "line 6930 column 51: model is not available")
(error "line 6931 column 51: model is not available")
(error "line 6932 column 51: model is not available")
(error "line 6933 column 51: model is not available")
(error "line 6934 column 51: model is not available")
(error "line 6935 column 51: model is not available")
(error "line 6936 column 51: model is not available")
(error "line 6937 column 51: model is not available")
(error "line 6938 column 51: model is not available")
(error "line 6939 column 51: model is not available")
(error "line 6940 column 51: model is not available")
(error "line 6941 column 50: model is not available")
(error "line 6942 column 50: model is not available")
(error "line 6943 column 50: model is not available")
(error "line 6944 column 50: model is not available")
(error "line 6945 column 50: model is not available")
(error "line 6946 column 51: model is not available")
(error "line 6947 column 51: model is not available")
(error "line 6948 column 51: model is not available")
(error "line 6949 column 51: model is not available")
(error "line 6950 column 51: model is not available")
(error "line 6951 column 51: model is not available")
(error "line 6952 column 51: model is not available")
(error "line 6953 column 51: model is not available")
(error "line 6954 column 51: model is not available")
(error "line 6955 column 51: model is not available")
(error "line 6956 column 51: model is not available")
(error "line 6957 column 51: model is not available")
(error "line 6958 column 51: model is not available")
(error "line 6959 column 51: model is not available")
(error "line 6960 column 51: model is not available")
(error "line 6961 column 51: model is not available")
(error "line 6962 column 51: model is not available")
(error "line 6963 column 51: model is not available")
(error "line 6964 column 51: model is not available")
(error "line 6965 column 50: model is not available")
(error "line 6966 column 50: model is not available")
(error "line 6967 column 50: model is not available")
(error "line 6968 column 50: model is not available")
(error "line 6969 column 50: model is not available")
(error "line 6970 column 51: model is not available")
(error "line 6971 column 51: model is not available")
(error "line 6972 column 51: model is not available")
(error "line 6973 column 51: model is not available")
(error "line 6974 column 51: model is not available")
(error "line 6975 column 51: model is not available")
(error "line 6976 column 51: model is not available")
(error "line 6977 column 51: model is not available")
(error "line 6978 column 51: model is not available")
(error "line 6979 column 51: model is not available")
(error "line 6980 column 51: model is not available")
(error "line 6981 column 51: model is not available")
(error "line 6982 column 51: model is not available")
(error "line 6983 column 51: model is not available")
(error "line 6984 column 51: model is not available")
(error "line 6985 column 51: model is not available")
(error "line 6986 column 51: model is not available")
(error "line 6987 column 51: model is not available")
(error "line 6988 column 51: model is not available")
(error "line 6989 column 51: model is not available")
(error "line 6990 column 51: model is not available")
(error "line 6991 column 51: model is not available")
(error "line 6992 column 51: model is not available")
(error "line 6993 column 51: model is not available")
(error "line 6994 column 51: model is not available")
(error "line 6995 column 51: model is not available")
(error "line 6996 column 51: model is not available")
(error "line 6997 column 51: model is not available")
(error "line 6998 column 52: model is not available")
(error "line 6999 column 52: model is not available")
(error "line 7000 column 52: model is not available")
(error "line 7001 column 52: model is not available")
(error "line 7002 column 52: model is not available")
(error "line 7003 column 52: model is not available")
(error "line 7004 column 52: model is not available")
(error "line 7005 column 52: model is not available")
(error "line 7006 column 52: model is not available")
(error "line 7007 column 52: model is not available")
(error "line 7008 column 52: model is not available")
(error "line 7009 column 52: model is not available")
(error "line 7010 column 52: model is not available")
(error "line 7011 column 52: model is not available")
(error "line 7012 column 52: model is not available")
(error "line 7013 column 51: model is not available")
(error "line 7014 column 51: model is not available")
(error "line 7015 column 51: model is not available")
(error "line 7016 column 51: model is not available")
(error "line 7017 column 51: model is not available")
(error "line 7018 column 52: model is not available")
(error "line 7019 column 52: model is not available")
(error "line 7020 column 52: model is not available")
(error "line 7021 column 52: model is not available")
(error "line 7022 column 52: model is not available")
(error "line 7023 column 52: model is not available")
(error "line 7024 column 52: model is not available")
(error "line 7025 column 52: model is not available")
(error "line 7026 column 52: model is not available")
(error "line 7027 column 52: model is not available")
(error "line 7028 column 52: model is not available")
(error "line 7029 column 52: model is not available")
(error "line 7030 column 52: model is not available")
(error "line 7031 column 52: model is not available")
(error "line 7032 column 52: model is not available")
(error "line 7033 column 52: model is not available")
(error "line 7034 column 52: model is not available")
(error "line 7035 column 52: model is not available")
(error "line 7036 column 52: model is not available")
(error "line 7037 column 51: model is not available")
(error "line 7038 column 51: model is not available")
(error "line 7039 column 51: model is not available")
(error "line 7040 column 51: model is not available")
(error "line 7041 column 51: model is not available")
(error "line 7042 column 56: model is not available")
(error "line 7043 column 56: model is not available")
(error "line 7044 column 56: model is not available")
(error "line 7045 column 56: model is not available")
(error "line 7046 column 56: model is not available")
(error "line 7047 column 56: model is not available")
(error "line 7048 column 56: model is not available")
(error "line 7049 column 56: model is not available")
(error "line 7050 column 56: model is not available")
(error "line 7051 column 56: model is not available")
(error "line 7052 column 56: model is not available")
(error "line 7053 column 56: model is not available")
(error "line 7054 column 56: model is not available")
(error "line 7055 column 56: model is not available")
(error "line 7056 column 56: model is not available")
(error "line 7057 column 56: model is not available")
(error "line 7058 column 56: model is not available")
(error "line 7059 column 56: model is not available")
(error "line 7060 column 56: model is not available")
(error "line 7061 column 56: model is not available")
(error "line 7062 column 56: model is not available")
(error "line 7063 column 56: model is not available")
(error "line 7064 column 56: model is not available")
(error "line 7065 column 56: model is not available")
(error "line 7066 column 56: model is not available")
(error "line 7067 column 56: model is not available")
(error "line 7068 column 56: model is not available")
(error "line 7069 column 56: model is not available")
(error "line 7070 column 56: model is not available")
(error "line 7071 column 56: model is not available")
(error "line 7072 column 56: model is not available")
(error "line 7073 column 56: model is not available")
(error "line 7074 column 56: model is not available")
(error "line 7075 column 56: model is not available")
(error "line 7076 column 56: model is not available")
(error "line 7077 column 56: model is not available")
(error "line 7078 column 56: model is not available")
(error "line 7079 column 56: model is not available")
(error "line 7080 column 56: model is not available")
(error "line 7081 column 56: model is not available")
(error "line 7082 column 56: model is not available")
(error "line 7083 column 56: model is not available")
(error "line 7084 column 56: model is not available")
(error "line 7085 column 56: model is not available")
(error "line 7086 column 56: model is not available")
(error "line 7087 column 56: model is not available")
(error "line 7088 column 56: model is not available")
(error "line 7089 column 56: model is not available")
(error "line 7090 column 56: model is not available")
(error "line 7091 column 56: model is not available")
(error "line 7092 column 56: model is not available")
(error "line 7093 column 56: model is not available")
(error "line 7094 column 56: model is not available")
(error "line 7095 column 56: model is not available")
(error "line 7096 column 56: model is not available")
(error "line 7097 column 56: model is not available")
(error "line 7098 column 56: model is not available")
(error "line 7099 column 56: model is not available")
(error "line 7100 column 56: model is not available")
(error "line 7101 column 56: model is not available")
(error "line 7102 column 56: model is not available")
(error "line 7103 column 56: model is not available")
(error "line 7104 column 56: model is not available")
(error "line 7105 column 56: model is not available")
(error "line 7106 column 56: model is not available")
(error "line 7107 column 36: model is not available")
(error "line 7108 column 36: model is not available")
(error "line 7109 column 36: model is not available")
(error "line 7110 column 36: model is not available")
(error "line 7111 column 36: model is not available")
(error "line 7112 column 36: model is not available")
(error "line 7113 column 36: model is not available")
(error "line 7114 column 36: model is not available")
(error "line 7115 column 36: model is not available")
(error "line 7116 column 36: model is not available")
(error "line 7117 column 46: model is not available")
(error "line 7118 column 46: model is not available")
(error "line 7119 column 46: model is not available")
(error "line 7120 column 46: model is not available")
(error "line 7121 column 46: model is not available")
(error "line 7122 column 46: model is not available")
(error "line 7123 column 46: model is not available")
(error "line 7124 column 46: model is not available")
(error "line 7125 column 46: model is not available")
(error "line 7126 column 46: model is not available")
(error "line 7127 column 54: model is not available")
(error "line 7128 column 54: model is not available")
(error "line 7129 column 54: model is not available")
(error "line 7130 column 54: model is not available")
(error "line 7131 column 54: model is not available")
(error "line 7132 column 54: model is not available")
(error "line 7133 column 54: model is not available")
(error "line 7134 column 54: model is not available")
(error "line 7135 column 54: model is not available")
(error "line 7136 column 54: model is not available")
(error "line 7137 column 54: model is not available")
(error "line 7138 column 54: model is not available")
(error "line 7139 column 54: model is not available")
(error "line 7140 column 54: model is not available")
(error "line 7141 column 54: model is not available")
(error "line 7142 column 40: model is not available")
(error "line 7143 column 40: model is not available")
(error "line 7144 column 40: model is not available")
(error "line 7145 column 40: model is not available")
(error "line 7146 column 40: model is not available")
(error "line 7147 column 40: model is not available")
(error "line 7148 column 40: model is not available")
(error "line 7149 column 40: model is not available")
(error "line 7150 column 40: model is not available")
(error "line 7151 column 40: model is not available")
(error "line 7152 column 41: model is not available")
(error "line 7153 column 41: model is not available")
(error "line 7154 column 41: model is not available")
(error "line 7155 column 41: model is not available")
(error "line 7156 column 41: model is not available")
(error "line 7157 column 41: model is not available")
(error "line 7158 column 41: model is not available")
(error "line 7159 column 41: model is not available")
(error "line 7160 column 41: model is not available")
(error "line 7161 column 41: model is not available")
(error "line 7162 column 50: model is not available")
(error "line 7163 column 50: model is not available")
(error "line 7164 column 50: model is not available")
(error "line 7165 column 50: model is not available")
(error "line 7166 column 50: model is not available")
(error "line 7167 column 50: model is not available")
(error "line 7168 column 50: model is not available")
(error "line 7169 column 50: model is not available")
(error "line 7170 column 50: model is not available")
(error "line 7171 column 50: model is not available")
(error "line 7172 column 43: model is not available")
(error "line 7173 column 43: model is not available")
(error "line 7174 column 43: model is not available")
(error "line 7175 column 43: model is not available")
(error "line 7176 column 43: model is not available")
(error "line 7177 column 43: model is not available")
(error "line 7178 column 43: model is not available")
(error "line 7179 column 43: model is not available")
(error "line 7180 column 43: model is not available")
(error "line 7181 column 43: model is not available")
(error "line 7182 column 30: model is not available")
(error "line 7183 column 30: model is not available")
(error "line 7184 column 30: model is not available")
(error "line 7185 column 30: model is not available")
(error "line 7186 column 30: model is not available")
(error "line 7187 column 36: model is not available")
(error "line 7188 column 36: model is not available")
(error "line 7189 column 36: model is not available")
(error "line 7190 column 36: model is not available")
(error "line 7191 column 36: model is not available")
(error "line 7192 column 36: model is not available")
(error "line 7193 column 36: model is not available")
(error "line 7194 column 36: model is not available")
(error "line 7195 column 36: model is not available")
(error "line 7196 column 36: model is not available")
(error "line 7197 column 31: model is not available")
(error "line 7198 column 31: model is not available")
(error "line 7199 column 31: model is not available")
(error "line 7200 column 31: model is not available")
(error "line 7201 column 31: model is not available")
(error "line 7202 column 31: model is not available")
(error "line 7203 column 31: model is not available")
(error "line 7204 column 31: model is not available")
(error "line 7205 column 31: model is not available")
(error "line 7206 column 31: model is not available")
(error "line 7207 column 31: model is not available")
(error "line 7208 column 31: model is not available")
(error "line 7209 column 31: model is not available")
(error "line 7210 column 31: model is not available")
(error "line 7211 column 31: model is not available")
(error "line 7212 column 31: model is not available")
(error "line 7213 column 31: model is not available")
(error "line 7214 column 31: model is not available")
(error "line 7215 column 31: model is not available")
(error "line 7216 column 31: model is not available")
(error "line 7217 column 31: model is not available")
(error "line 7218 column 31: model is not available")
(error "line 7219 column 31: model is not available")
(error "line 7220 column 31: model is not available")
(error "line 7221 column 31: model is not available")
(error "line 7222 column 31: model is not available")
(error "line 7223 column 31: model is not available")
(error "line 7224 column 31: model is not available")
(error "line 7225 column 31: model is not available")
(error "line 7226 column 31: model is not available")
(error "line 7227 column 31: model is not available")
(error "line 7228 column 31: model is not available")
(error "line 7229 column 31: model is not available")
(error "line 7230 column 31: model is not available")
(error "line 7231 column 31: model is not available")
(error "line 7232 column 31: model is not available")
(error "line 7233 column 31: model is not available")
(error "line 7234 column 31: model is not available")
(error "line 7235 column 31: model is not available")
(error "line 7236 column 31: model is not available")
(error "line 7237 column 31: model is not available")
(error "line 7238 column 31: model is not available")
(error "line 7239 column 31: model is not available")
(error "line 7240 column 31: model is not available")
(error "line 7241 column 31: model is not available")
(error "line 7242 column 30: model is not available")
(error "line 7243 column 30: model is not available")
(error "line 7244 column 30: model is not available")
(error "line 7245 column 30: model is not available")
(error "line 7246 column 30: model is not available")
(error "line 7248 column 10: model is not available")
(:max-memory   4.20
 :memory       3.68
 :mk-bool-var  1
 :num-allocs   843219
 :rlimit-count 274533
 :time         0.02
 :total-time   0.04)

real	0m0.048s
user	0m0.048s
sys	0m0.000s
State: RE Run_time: 0.05016732215881348